<number of tasks>
20

<cycle time>
1000

<order strength>
0,8


<task times>
1 229
2 29
3 36
4 244
5 107
6 264
7 88
8 581
9 132
10 499
11 216
12 126
13 283
14 123
15 267
16 187
17 567
18 418
19 220
20 165

<precedence relations>
1,4
2,4
2,5
3,7
4,6
5,6
6,7
6,8
7,9
7,10
7,11
8,10
8,12
8,16
9,13
10,19
10,20
11,13
12,17
12,18
13,14
13,15
13,16
14,17
14,18
15,17
15,18
16,17
16,18
17,19
17,20
18,19
18,20

<end>
